VER
4

OBJSENSE
MIN

VAR
12 1
F 12

CON
296 4
SVECQRE 273
SVECQE 12
SVECPSD 10
L= 1

OBJACOORD
2
0 1.0
1 1.0

ACOORD
70
0 0 1.0
1 2 1.0
11 3 1.0
15 4 1.0
37 5 1.0
41 6 1.0
45 7 1.0
79 8 1.0
83 9 1.0
87 10 1.0
91 11 1.0
137 2 1.0
139 2 1.0
142 2 1.0
146 2 1.0
147 3 1.0
151 4 1.0
153 3 1.0
157 4 1.0
160 3 1.0
164 4 1.0
168 3 1.0
172 4 1.0
173 5 1.0
177 6 1.0
181 7 1.0
183 5 1.0
187 6 1.0
191 7 1.0
194 5 1.0
198 6 1.0
202 7 1.0
206 5 1.0
210 6 1.0
214 7 1.0
215 8 1.0
219 9 1.0
223 10 1.0
227 11 1.0
229 8 1.0
233 9 1.0
237 10 1.0
241 11 1.0
244 8 1.0
248 9 1.0
252 10 1.0
256 11 1.0
260 8 1.0
264 9 1.0
268 10 1.0
272 11 1.0
273 1 1.0
275 2 1.0
275 4 1.0
275 7 1.0
275 11 1.0
285 2 1.0
286 3 1.0
287 4 1.0
288 5 1.0
289 6 1.0
290 7 1.0
291 8 1.0
292 9 1.0
293 10 1.0
294 11 1.0
295 2 1.0
295 4 1.0
295 7 1.0
295 11 1.0

BCOORD
2
274 -1.0
295 1.0
